networks/zoo_89_396/zoo_89_396-lower.txt
Number of groups: 37
Flow 15: {3 37 0} {37 36 1} {36 81 2} 
Flow 44: {2 1 0} {1 13 1} {13 14 2} {14 11 3} {11 19 4} 
Flow 51: {7 2 0} {2 28 1} {28 35 2} {35 34 3} {34 79 4} 
Flow 61: {1 4 0} {4 3 1} {3 15 2} 
Flow 78: {13 27 0} 
Flow 87: {10 6 0} {6 7 1} {7 52 2} 
Flow 91: {10 9 0} {9 41 1} {41 42 2} {42 44 3} {44 37 4} 
Flow 97: {11 14 0} {14 15 1} {15 37 2} {37 82 3} 
Flow 123: {5 40 0} {40 39 1} {39 84 2} 
Flow 137: {25 23 0} 
Flow 154: {4 1 0} {1 2 1} {2 47 2} 
Flow 172: {19 20 0} {20 21 1} {21 66 2} 
Flow 173: {19 18 2} {18 25 3} {25 70 4} 
Flow 198: {25 18 0} {18 17 1} {17 15 2} {15 3 3} {3 48 4} 
Flow 206: {21 20 0} {20 19 1} {19 64 2} 
Flow 207: {21 23 0} {23 68 1} 
Flow 213: {32 34 0} 
Flow 217: {21 25 0} {25 22 1} {22 14 2} {14 13 3} 
Flow 218: {18 36 0} {36 37 1} {37 44 2} {44 42 3} {42 87 4} 
Flow 229: {15 16 0} {16 61 1} 
Flow 256: {26 27 0} {27 32 1} {32 33 2} {33 35 3} {35 80 4} 
Flow 271: {30 38 0} {38 83 1} 
Flow 274: {31 28 0} {28 2 1} {2 7 2} {7 6 3} 
Flow 277: {35 33 0} {33 32 1} {32 22 2} {22 25 3} {25 21 4} 
Flow 283: {34 32 0} {32 27 1} {27 13 2} {13 1 3} {1 46 4} 
Flow 284: {34 35 0} {35 28 1} 
Flow 296: {34 33 0} {33 78 1} 
Flow 305: {37 3 0} {3 4 1} {4 49 2} 
Flow 308: {42 41 0} {41 9 1} {9 54 2} 
Flow 309: {36 18 0} {18 19 1} {19 11 2} {11 56 3} 
Flow 313: {35 29 0} {29 74 1} 
Flow 332: {9 6 0} {6 5 1} {5 38 2} {38 30 3} {30 75 4} 
Flow 333: {37 15 0} {15 14 1} {14 22 2} {22 32 3} {32 77 4} 
Flow 342: {39 38 0} {38 5 1} {5 50 2} 
Flow 356: {40 5 0} {5 6 1} {6 9 2} 
Flow 391: {45 36 0} {36 16 1} {16 15 2} {15 60 3} 
Flow 396: {45 44 0} {44 89 1} 
Time taken running everything: 2 seconds
