networks/zoo_89_396/zoo_89_396-lower.sol
<?xml version = "1.0" encoding="UTF-8" standalone="yes"?>
<CPLEXSolution version="1.2">
 <header
   problemName="networks/zoo_89_396/zoo_89_396-lower.lp"
   solutionName="incumbent"
   solutionIndex="-1"
   objectiveValue="26"
   solutionTypeValue="3"
   solutionTypeString="primal"
   solutionStatusValue="101"
   solutionStatusString="integer optimal solution"
   solutionMethodString="mip"
   primalFeasible="1"
   dualFeasible="1"
   MIPNodes="0"
   MIPIterations="0"
   writeLevel="3"/>
 <quality
   epInt="1.0000000000000001e-05"
   epRHS="9.9999999999999995e-07"
   maxIntInfeas="0"
   maxPrimalInfeas="0"
   maxX="1"
   maxSlack="1"/>
 <variables>
  <variable name="Y(1,2)" index="1" value="1"/>
  <variable name="Y(2,3)" index="69" value="1"/>
  <variable name="Y(3,5)" index="138" value="1"/>
  <variable name="Y(4,7)" index="207" value="1"/>
  <variable name="Y(5,9)" index="275" value="1"/>
  <variable name="Y(6,11)" index="344" value="1"/>
  <variable name="Y(7,15)" index="414" value="1"/>
  <variable name="Y(8,21)" index="487" value="1"/>
  <variable name="Y(9,25)" index="557" value="1"/>
  <variable name="Y(10,29)" index="628" value="1"/>
  <variable name="Y(11,30)" index="696" value="1"/>
  <variable name="Y(12,32)" index="765" value="1"/>
  <variable name="Y(13,33)" index="833" value="1"/>
  <variable name="Y(14,35)" index="902" value="1"/>
  <variable name="Y(15,36)" index="970" value="1"/>
  <variable name="Y(16,37)" index="1038" value="1"/>
  <variable name="Y(17,38)" index="1106" value="1"/>
  <variable name="Y(18,44)" index="1178" value="1"/>
  <variable name="Y(25,1)" index="1608" value="1"/>
  <variable name="Y(39,4)" index="2549" value="1"/>
  <variable name="Y(44,19)" index="2897" value="1"/>
  <variable name="Y(51,34)" index="3380" value="1"/>
  <variable name="Y(109,16)" index="7249" value="1"/>
  <variable name="Y(112,23)" index="7457" value="1"/>
  <variable name="Y(123,39)" index="8209" value="1"/>
  <variable name="Y(124,42)" index="8279" value="1"/>
  <variable name="X(1,2,1)" index="26532" value="1"/>
  <variable name="X(1,4,2)" index="26929" value="1"/>
  <variable name="X(1,13,6)" index="27329" value="1"/>
  <variable name="X(1,46,25)" index="27744" value="1"/>
  <variable name="X(2,1,20)" index="28135" value="1"/>
  <variable name="X(2,7,3)" index="28514" value="1"/>
  <variable name="X(2,28,10)" index="28917" value="1"/>
  <variable name="X(2,47,1)" index="29304" value="1"/>
  <variable name="X(3,4,25)" index="29724" value="1"/>
  <variable name="X(3,15,7)" index="30102" value="1"/>
  <variable name="X(3,37,15)" index="30506" value="1"/>
  <variable name="X(3,48,2)" index="30889" value="1"/>
  <variable name="X(4,1,25)" index="31308" value="1"/>
  <variable name="X(4,3,2)" index="31681" value="1"/>
  <variable name="X(4,49,39)" index="32114" value="1"/>
  <variable name="X(5,6,36)" index="32507" value="1"/>
  <variable name="X(5,38,11)" index="32878" value="1"/>
  <variable name="X(5,40,123)" index="33386" value="1"/>
  <variable name="X(5,50,3)" index="33662" value="1"/>
  <variable name="X(6,5,3)" index="34058" value="1"/>
  <variable name="X(6,7,36)" index="34487" value="1"/>
  <variable name="X(6,9,5)" index="34852" value="1"/>
  <variable name="X(7,2,36)" index="35279" value="1"/>
  <variable name="X(7,6,3)" index="35642" value="1"/>
  <variable name="X(7,52,4)" index="36039" value="1"/>
  <variable name="X(9,6,68)" index="36499" value="1"/>
  <variable name="X(9,41,43)" index="36870" value="1"/>
  <variable name="X(9,54,5)" index="37228" value="1"/>
  <variable name="X(10,6,85)" index="37704" value="1"/>
  <variable name="X(10,9,88)" index="38103" value="1"/>
  <variable name="X(11,14,94)" index="38505" value="1"/>
  <variable name="X(11,19,44)" index="38851" value="1"/>
  <variable name="X(11,56,6)" index="39209" value="1"/>
  <variable name="X(13,1,94)" index="39693" value="1"/>
  <variable name="X(13,14,6)" index="40001" value="1"/>
  <variable name="X(13,27,12)" index="40403" value="1"/>
  <variable name="X(14,11,6)" index="40793" value="1"/>
  <variable name="X(14,13,94)" index="41277" value="1"/>
  <variable name="X(14,15,95)" index="41674" value="1"/>
  <variable name="X(14,22,8)" index="41983" value="1"/>
  <variable name="X(15,3,102)" index="42473" value="1"/>
  <variable name="X(15,14,31)" index="42798" value="1"/>
  <variable name="X(15,16,109)" index="43272" value="1"/>
  <variable name="X(15,37,97)" index="43656" value="1"/>
  <variable name="X(15,60,7)" index="43962" value="1"/>
  <variable name="X(16,15,310)" index="44661" value="1"/>
  <variable name="X(16,61,109)" index="44856" value="1"/>
  <variable name="X(17,15,149)" index="45292" value="1"/>
  <variable name="X(18,17,154)" index="45693" value="1"/>
  <variable name="X(18,19,309)" index="46244" value="1"/>
  <variable name="X(18,25,30)" index="46361" value="1"/>
  <variable name="X(18,36,155)" index="46882" value="1"/>
  <variable name="X(19,11,163)" index="47286" value="1"/>
  <variable name="X(19,18,169)" index="47688" value="1"/>
  <variable name="X(19,20,172)" index="48087" value="1"/>
  <variable name="X(19,64,44)" index="48355" value="1"/>
  <variable name="X(20,19,184)" index="48891" value="1"/>
  <variable name="X(20,21,172)" index="49275" value="1"/>
  <variable name="X(21,20,203)" index="49702" value="1"/>
  <variable name="X(21,23,207)" index="50102" value="1"/>
  <variable name="X(21,25,191)" index="50482" value="1"/>
  <variable name="X(21,66,8)" index="50695" value="1"/>
  <variable name="X(22,14,196)" index="51279" value="1"/>
  <variable name="X(22,25,8)" index="51487" value="1"/>
  <variable name="X(22,32,31)" index="51906" value="1"/>
  <variable name="X(23,68,112)" index="52383" value="1"/>
  <variable name="X(25,18,198)" index="52865" value="1"/>
  <variable name="X(25,21,8)" index="53071" value="1"/>
  <variable name="X(25,22,158)" index="53617" value="1"/>
  <variable name="X(25,23,112)" index="53967" value="1"/>
  <variable name="X(25,70,9)" index="54260" value="1"/>
  <variable name="X(26,27,244)" index="54891" value="1"/>
  <variable name="X(27,13,244)" index="55287" value="1"/>
  <variable name="X(27,32,12)" index="55451" value="1"/>
  <variable name="X(28,2,273)" index="56108" value="1"/>
  <variable name="X(28,35,10)" index="56241" value="1"/>
  <variable name="X(29,74,10)" index="56637" value="1"/>
  <variable name="X(30,38,261)" index="57284" value="1"/>
  <variable name="X(30,75,11)" index="57430" value="1"/>
  <variable name="X(31,28,273)" index="58088" value="1"/>
  <variable name="X(32,22,252)" index="58463" value="1"/>
  <variable name="X(32,27,283)" index="58890" value="1"/>
  <variable name="X(32,33,31)" index="59034" value="1"/>
  <variable name="X(32,34,118)" index="59517" value="1"/>
  <variable name="X(32,77,12)" index="59807" value="1"/>
  <variable name="X(33,32,277)" index="60468" value="1"/>
  <variable name="X(33,35,96)" index="60683" value="1"/>
  <variable name="X(33,78,13)" index="60996" value="1"/>
  <variable name="X(34,32,283)" index="61662" value="1"/>
  <variable name="X(34,33,296)" index="62071" value="1"/>
  <variable name="X(34,35,284)" index="62455" value="1"/>
  <variable name="X(34,79,51)" index="62618" value="1"/>
  <variable name="X(35,28,284)" index="63247" value="1"/>
  <variable name="X(35,29,10)" index="63369" value="1"/>
  <variable name="X(35,33,13)" index="63768" value="1"/>
  <variable name="X(35,34,51)" index="64202" value="1"/>
  <variable name="X(35,80,14)" index="64561" value="1"/>
  <variable name="X(36,16,205)" index="65148" value="1"/>
  <variable name="X(36,18,30)" index="65369" value="1"/>
  <variable name="X(36,37,155)" index="65890" value="1"/>
  <variable name="X(36,81,15)" index="66146" value="1"/>
  <variable name="X(37,3,70)" index="66597" value="1"/>
  <variable name="X(37,15,43)" index="66966" value="1"/>
  <variable name="X(37,36,15)" index="67334" value="1"/>
  <variable name="X(37,44,18)" index="67733" value="1"/>
  <variable name="X(37,82,16)" index="68127" value="1"/>
  <variable name="X(38,5,261)" index="68768" value="1"/>
  <variable name="X(38,30,11)" index="68914" value="1"/>
  <variable name="X(38,83,17)" index="69316" value="1"/>
  <variable name="X(39,38,339)" index="70034" value="1"/>
  <variable name="X(39,84,123)" index="70214" value="1"/>
  <variable name="X(40,5,351)" index="70838" value="1"/>
  <variable name="X(40,39,123)" index="71006" value="1"/>
  <variable name="X(41,9,132)" index="71411" value="1"/>
  <variable name="X(41,42,43)" index="71718" value="1"/>
  <variable name="X(42,41,132)" index="72203" value="1"/>
  <variable name="X(42,44,43)" index="72510" value="1"/>
  <variable name="X(42,87,124)" index="72987" value="1"/>
  <variable name="X(44,37,43)" index="73302" value="1"/>
  <variable name="X(44,42,124)" index="73779" value="1"/>
  <variable name="X(44,89,18)" index="74069" value="1"/>
  <variable name="X(45,36,388)" index="74835" value="1"/>
  <variable name="X(45,44,389)" index="75232" value="1"/>
 </variables>
</CPLEXSolution>
